p cnf 50 130
1 2 0
-1 -2 0
3 4 0
-3 -4 0
5 6 0
-5 -6 0
7 8 9 0
-7 -8 0
-7 -9 0
-8 -9 0
10 11 12 0
-10 -11 0
-10 -12 0
-11 -12 0
13 14 15 0
-13 -14 0
-13 -15 0
-14 -15 0
16 17 18 0
-16 -17 0
-16 -18 0
-17 -18 0
19 20 0
-19 -20 0
21 22 23 24 0
-21 -22 0
-21 -23 0
-21 -24 0
-22 -23 0
-22 -24 0
-23 -24 0
25 26 27 0
-25 -26 0
-25 -27 0
-26 -27 0
28 29 0
-28 -29 0
30 31 32 33 0
-30 -31 0
-30 -32 0
-30 -33 0
-31 -32 0
-31 -33 0
-32 -33 0
34 35 0
-34 -35 0
36 37 0
-36 -37 0
38 39 0
-38 -39 0
40 41 42 0
-40 -41 0
-40 -42 0
-41 -42 0
43 44 45 0
-43 -44 0
-43 -45 0
-44 -45 0
46 47 48 0
-46 -47 0
-46 -48 0
-47 -48 0
49 50 0
-49 -50 0
-1 -10 0
-1 -25 0
-2 -26 0
-1 -36 0
-1 -46 0
-2 -47 0
-3 -5 0
-4 -6 0
-3 -10 0
-4 -11 0
-3 -21 0
-4 -23 0
-3 -30 0
-4 -32 0
-3 -46 0
-3 -49 0
-5 -10 0
-6 -11 0
-5 -25 0
-7 -21 0
-8 -22 0
-9 -23 0
-7 -36 0
-9 -38 0
-10 -30 0
-11 -32 0
-12 -33 0
-10 -34 0
-10 -40 0
-11 -42 0
-10 -49 0
-13 -16 0
-15 -18 0
-13 -30 0
-14 -32 0
-15 -33 0
-13 -34 0
-13 -43 0
-15 -45 0
-16 -25 0
-17 -26 0
-18 -27 0
-16 -34 0
-17 -35 0
-16 -40 0
-17 -41 0
-19 -22 0
-20 -23 0
-19 -35 0
-25 -40 0
-26 -41 0
-25 -49 0
-26 -50 0
-29 -39 0
-28 -46 0
-29 -48 0
-30 -36 0
-33 -37 0
-30 -40 0
-31 -41 0
-32 -42 0
-36 -40 0
-36 -46 0
-37 -48 0
-46 -49 0
-47 -50 0
